true true true
presolving:
presolving (0 rounds: 0 fast, 0 medium, 0 exhaustive):
 0 deleted vars, 0 deleted constraints, 0 added constraints, 0 tightened bounds, 0 added holes, 0 changed sides, 0 changed coefficients
 0 implications, 0 cliques
presolved problem has 57 variables (57 bin, 0 int, 0 impl, 0 cont) and 48 constraints
     48 constraints of type <linear>
transformed objective value is always integral (scale: 1)
Presolving Time: 0.00

 time | node  | left  |LP iter|LP it/n|mem/heur|mdpt |vars |cons |rows |cuts |sepa|confs|strbr|  dualbound   | primalbound  |  gap   | compl. 
p 0.0s|     1 |     0 |     0 |     - |shiftand|   0 |  57 |  48 |  48 |   0 |  0 |   0 |   0 |      --      | 9.000000e+00 |    Inf | unknown
 time | node  | left  |LP iter|LP it/n|mem/heur|mdpt |vars |cons |rows |cuts |sepa|confs|strbr|  dualbound   | primalbound  |  gap   | compl. 
  0.0s|     1 |     0 |    33 |     - |  2129k |   0 | 464 |  48 |  48 |   0 |  0 |   0 |   0 | 1.000000e+00 | 9.000000e+00 | 800.00%| unknown
 time | node  | left  |LP iter|LP it/n|mem/heur|mdpt |vars |cons |rows |cuts |sepa|confs|strbr|  dualbound   | primalbound  |  gap   | compl. 
  1.5s|     1 |     0 |   504 |     - |  5777k |   0 |1620 |  48 |  48 |   0 |  0 |   0 |   0 | 8.000000e+00 | 9.000000e+00 |  12.50%| unknown
 time | node  | left  |LP iter|LP it/n|mem/heur|mdpt |vars |cons |rows |cuts |sepa|confs|strbr|  dualbound   | primalbound  |  gap   | compl. 
  1.6s|     1 |     2 |   852 |     - |  6255k |   0 |1620 |  48 |  48 |   0 |  1 |   0 |   0 | 8.000000e+00 | 9.000000e+00 |  12.50%| unknown
 time | node  | left  |LP iter|LP it/n|mem/heur|mdpt |vars |cons |rows |cuts |sepa|confs|strbr|  dualbound   | primalbound  |  gap   | compl. 
  2.1s|     2 |     3 |   888 |  36.0 |  6328k |   1 |1629 |  48 |  48 |   0 |  1 |   0 |   0 | 8.000000e+00 | 9.000000e+00 |  12.50%| unknown
 time | node  | left  |LP iter|LP it/n|mem/heur|mdpt |vars |cons |rows |cuts |sepa|confs|strbr|  dualbound   | primalbound  |  gap   | compl. 
  2.7s|     3 |     4 |   956 |  52.0 |  6408k |   2 |1658 |  48 |  48 |   0 |  1 |   0 |   0 | 8.000000e+00 | 9.000000e+00 |  12.50%| unknown
 time | node  | left  |LP iter|LP it/n|mem/heur|mdpt |vars |cons |rows |cuts |sepa|confs|strbr|  dualbound   | primalbound  |  gap   | compl. 
  3.1s|     4 |     5 |   998 |  48.7 |  6734k |   2 |1672 |  48 |  48 |   0 |  1 |   0 |   0 | 8.000000e+00 | 9.000000e+00 |  12.50%| unknown
 time | node  | left  |LP iter|LP it/n|mem/heur|mdpt |vars |cons |rows |cuts |sepa|confs|strbr|  dualbound   | primalbound  |  gap   | compl. 
  3.4s|     5 |     6 |  1005 |  38.2 |  6760k |   3 |1673 |  48 |  48 |   0 |  1 |   0 |   0 | 8.000000e+00 | 9.000000e+00 |  12.50%| unknown
 time | node  | left  |LP iter|LP it/n|mem/heur|mdpt |vars |cons |rows |cuts |sepa|confs|strbr|  dualbound   | primalbound  |  gap   | compl. 
  4.1s|     6 |     7 |  1057 |  41.0 |  6772k |   3 |1702 |  48 |  48 |   0 |  1 |   0 |   0 | 8.000000e+00 | 9.000000e+00 |  12.50%| unknown
 time | node  | left  |LP iter|LP it/n|mem/heur|mdpt |vars |cons |rows |cuts |sepa|confs|strbr|  dualbound   | primalbound  |  gap   | compl. 
  4.6s|     7 |     8 |  1062 |  35.0 |  6799k |   4 |1704 |  48 |  48 |   0 |  1 |   0 |   0 | 8.000000e+00 | 9.000000e+00 |  12.50%| unknown
 time | node  | left  |LP iter|LP it/n|mem/heur|mdpt |vars |cons |rows |cuts |sepa|confs|strbr|  dualbound   | primalbound  |  gap   | compl. 
  5.0s|     8 |     7 |  1123 |  38.7 |  7072k |   4 |1733 |  48 |  48 |   0 |  0 |   0 |   0 | 8.000000e+00 | 9.000000e+00 |  12.50%| unknown
 time | node  | left  |LP iter|LP it/n|mem/heur|mdpt |vars |cons |rows |cuts |sepa|confs|strbr|  dualbound   | primalbound  |  gap   | compl. 
  5.4s|     9 |     8 |  1566 |  89.2 |  7436k |   5 |1734 |  48 |  48 |   0 |  1 |   0 |   0 | 8.000000e+00 | 9.000000e+00 |  12.50%|   2.29%
 time | node  | left  |LP iter|LP it/n|mem/heur|mdpt |vars |cons |rows |cuts |sepa|confs|strbr|  dualbound   | primalbound  |  gap   | compl. 
  6.5s|    10 |     9 |  1661 |  89.9 |  7616k |   5 |1829 |  48 |  48 |   0 |  1 |   0 |   0 | 8.000000e+00 | 9.000000e+00 |  12.50%|   2.29%
 time | node  | left  |LP iter|LP it/n|mem/heur|mdpt |vars |cons |rows |cuts |sepa|confs|strbr|  dualbound   | primalbound  |  gap   | compl. 
  7.4s|    11 |    10 |  1691 |  83.9 |  7619k |   6 |1843 |  48 |  48 |   0 |  1 |   0 |   0 | 8.000000e+00 | 9.000000e+00 |  12.50%|   2.29%
 time | node  | left  |LP iter|LP it/n|mem/heur|mdpt |vars |cons |rows |cuts |sepa|confs|strbr|  dualbound   | primalbound  |  gap   | compl. 
  8.4s|    12 |    11 |  1780 |  84.4 |  7656k |   7 |1867 |  48 |  48 |   0 |  1 |   0 |   0 | 8.000000e+00 | 9.000000e+00 |  12.50%|   2.29%
 time | node  | left  |LP iter|LP it/n|mem/heur|mdpt |vars |cons |rows |cuts |sepa|confs|strbr|  dualbound   | primalbound  |  gap   | compl. 
  8.9s|    13 |    12 |  1809 |  79.8 |  7658k |   8 |1890 |  48 |  48 |   0 |  1 |   0 |   0 | 8.000000e+00 | 9.000000e+00 |  12.50%|   2.29%
 time | node  | left  |LP iter|LP it/n|mem/heur|mdpt |vars |cons |rows |cuts |sepa|confs|strbr|  dualbound   | primalbound  |  gap   | compl. 
  9.6s|    14 |    11 |  2077 |  94.2 |  8759k |   9 |2110 |  48 |  48 |   0 |  0 |   0 |   0 | 8.000000e+00 | 9.000000e+00 |  12.50%|   2.29%
 time | node  | left  |LP iter|LP it/n|mem/heur|mdpt |vars |cons |rows |cuts |sepa|confs|strbr|  dualbound   | primalbound  |  gap   | compl. 
 10.2s|    15 |    12 |  2087 |  88.2 |  8759k |   9 |2111 |  48 |  48 |   0 |  1 |   0 |   0 | 8.000000e+00 | 9.000000e+00 |  12.50%|   2.36%
 time | node  | left  |LP iter|LP it/n|mem/heur|mdpt |vars |cons |rows |cuts |sepa|confs|strbr|  dualbound   | primalbound  |  gap   | compl. 
 10.5s|    16 |    13 |  2088 |  82.4 |  8880k |  10 |2111 |  48 |  48 |   0 |  1 |   0 |   0 | 8.000000e+00 | 9.000000e+00 |  12.50%|   2.36%
 time | node  | left  |LP iter|LP it/n|mem/heur|mdpt |vars |cons |rows |cuts |sepa|confs|strbr|  dualbound   | primalbound  |  gap   | compl. 
 10.8s|    17 |    14 |  2130 |  79.9 |  8880k |  11 |2121 |  48 |  48 |   0 |  1 |   0 |   0 | 8.000000e+00 | 9.000000e+00 |  12.50%|   2.36%
 time | node  | left  |LP iter|LP it/n|mem/heur|mdpt |vars |cons |rows |cuts |sepa|confs|strbr|  dualbound   | primalbound  |  gap   | compl. 
 11.3s|    18 |    15 |  2186 |  78.5 |  8924k |  12 |2131 |  48 |  48 |   0 |  1 |   0 |   0 | 8.000000e+00 | 9.000000e+00 |  12.50%|   2.36%
 time | node  | left  |LP iter|LP it/n|mem/heur|mdpt |vars |cons |rows |cuts |sepa|confs|strbr|  dualbound   | primalbound  |  gap   | compl. 
 11.9s|    19 |    16 |  2319 |  81.5 |  8989k |  13 |2134 |  48 |  48 |   0 |  1 |   0 |   0 | 8.000000e+00 | 9.000000e+00 |  12.50%|   2.36%
 time | node  | left  |LP iter|LP it/n|mem/heur|mdpt |vars |cons |rows |cuts |sepa|confs|strbr|  dualbound   | primalbound  |  gap   | compl. 
 12.6s|    20 |    17 |  2365 |  79.6 |  9036k |  13 |2147 |  48 |  48 |   0 |  1 |   0 |   0 | 8.000000e+00 | 9.000000e+00 |  12.50%|   2.36%
 time | node  | left  |LP iter|LP it/n|mem/heur|mdpt |vars |cons |rows |cuts |sepa|confs|strbr|  dualbound   | primalbound  |  gap   | compl. 
 13.2s|    21 |    16 |  2599 |  87.3 |  9695k |  13 |2430 |  48 |  48 |   0 |  0 |   0 |   0 | 8.000000e+00 | 9.000000e+00 |  12.50%|   2.36%
 time | node  | left  |LP iter|LP it/n|mem/heur|mdpt |vars |cons |rows |cuts |sepa|confs|strbr|  dualbound   | primalbound  |  gap   | compl. 
 14.0s|    22 |    17 |  2610 |  83.7 |  9715k |  13 |2435 |  48 |  48 |   0 |  1 |   0 |   0 | 8.000000e+00 | 9.000000e+00 |  12.50%|   2.37%
 time | node  | left  |LP iter|LP it/n|mem/heur|mdpt |vars |cons |rows |cuts |sepa|confs|strbr|  dualbound   | primalbound  |  gap   | compl. 
 14.1s|    23 |    16 |  2619 |  80.3 |  9741k |  14 |2435 |  48 |  48 |   0 |  0 |   0 |   0 | 8.000000e+00 | 9.000000e+00 |  12.50%|   2.37%
 time | node  | left  |LP iter|LP it/n|mem/heur|mdpt |vars |cons |rows |cuts |sepa|confs|strbr|  dualbound   | primalbound  |  gap   | compl. 
 14.3s|    24 |    15 |  2651 |  78.2 |    10M |  14 |2435 |  48 |  48 |   0 |  0 |   0 |   0 | 8.000000e+00 | 9.000000e+00 |  12.50%|   2.37%
 time | node  | left  |LP iter|LP it/n|mem/heur|mdpt |vars |cons |rows |cuts |sepa|confs|strbr|  dualbound   | primalbound  |  gap   | compl. 
 14.8s|    25 |    14 |  2793 |  80.9 |    10M |  14 |2491 |  48 |  48 |   0 |  0 |   0 |   0 | 8.000000e+00 | 9.000000e+00 |  12.50%|   2.41%
 time | node  | left  |LP iter|LP it/n|mem/heur|mdpt |vars |cons |rows |cuts |sepa|confs|strbr|  dualbound   | primalbound  |  gap   | compl. 
 15.2s|    26 |    15 |  2843 |  79.6 |    10M |  14 |2493 |  48 |  48 |   0 |  1 |   0 |   0 | 8.000000e+00 | 9.000000e+00 |  12.50%|   2.42%
 time | node  | left  |LP iter|LP it/n|mem/heur|mdpt |vars |cons |rows |cuts |sepa|confs|strbr|  dualbound   | primalbound  |  gap   | compl. 
 15.8s|    27 |    14 |  2962 |  81.2 |    11M |  14 |2632 |  48 |  48 |   0 |  0 |   0 |   0 | 8.000000e+00 | 9.000000e+00 |  12.50%|   2.42%
 time | node  | left  |LP iter|LP it/n|mem/heur|mdpt |vars |cons |rows |cuts |sepa|confs|strbr|  dualbound   | primalbound  |  gap   | compl. 
 16.4s|    28 |    15 |  2995 |  79.4 |    11M |  14 |2634 |  48 |  48 |   0 |  1 |   0 |   0 | 8.000000e+00 | 9.000000e+00 |  12.50%|   2.50%
 time | node  | left  |LP iter|LP it/n|mem/heur|mdpt |vars |cons |rows |cuts |sepa|confs|strbr|  dualbound   | primalbound  |  gap   | compl. 
 16.7s|    29 |    16 |  3147 |  82.0 |    11M |  14 |2634 |  48 |  48 |   0 |  1 |   0 |   0 | 8.000000e+00 | 9.000000e+00 |  12.50%|   2.50%
 time | node  | left  |LP iter|LP it/n|mem/heur|mdpt |vars |cons |rows |cuts |sepa|confs|strbr|  dualbound   | primalbound  |  gap   | compl. 
 16.8s|    30 |    15 |  3157 |  79.5 |    11M |  14 |2634 |  48 |  48 |   0 |  0 |   0 |   0 | 8.000000e+00 | 9.000000e+00 |  12.50%|   2.50%
 time | node  | left  |LP iter|LP it/n|mem/heur|mdpt |vars |cons |rows |cuts |sepa|confs|strbr|  dualbound   | primalbound  |  gap   | compl. 
 17.5s|    31 |    16 |  3236 |  79.5 |    11M |  14 |2670 |  48 |  48 |   0 |  1 |   0 |   0 | 8.000000e+00 | 9.000000e+00 |  12.50%|   2.50%
 time | node  | left  |LP iter|LP it/n|mem/heur|mdpt |vars |cons |rows |cuts |sepa|confs|strbr|  dualbound   | primalbound  |  gap   | compl. 
 18.5s|    32 |    17 |  3586 |  88.2 |    13M |  14 |3202 |  48 |  48 |   0 |  1 |   0 |   0 | 8.000000e+00 | 9.000000e+00 |  12.50%|   2.50%
 time | node  | left  |LP iter|LP it/n|mem/heur|mdpt |vars |cons |rows |cuts |sepa|confs|strbr|  dualbound   | primalbound  |  gap   | compl. 
 19.1s|    33 |    18 |  3608 |  86.1 |    13M |  14 |3207 |  48 |  48 |   0 |  1 |   0 |   0 | 8.000000e+00 | 9.000000e+00 |  12.50%|   2.50%
 time | node  | left  |LP iter|LP it/n|mem/heur|mdpt |vars |cons |rows |cuts |sepa|confs|strbr|  dualbound   | primalbound  |  gap   | compl. 
 19.7s|    34 |    17 |  3802 |  89.4 |    13M |  15 |3238 |  48 |  48 |   0 |  0 |   0 |   0 | 8.000000e+00 | 9.000000e+00 |  12.50%|   2.50%
 time | node  | left  |LP iter|LP it/n|mem/heur|mdpt |vars |cons |rows |cuts |sepa|confs|strbr|  dualbound   | primalbound  |  gap   | compl. 
 20.0s|    35 |    16 |  3825 |  87.4 |    14M |  15 |3238 |  48 |  48 |   0 |  0 |   0 |   0 | 8.000000e+00 | 9.000000e+00 |  12.50%|   2.50%
 time | node  | left  |LP iter|LP it/n|mem/heur|mdpt |vars |cons |rows |cuts |sepa|confs|strbr|  dualbound   | primalbound  |  gap   | compl. 
 20.3s|    36 |    17 |  3843 |  85.5 |    14M |  15 |3238 |  48 |  48 |   0 |  1 |   0 |   0 | 8.000000e+00 | 9.000000e+00 |  12.50%|   2.50%
 time | node  | left  |LP iter|LP it/n|mem/heur|mdpt |vars |cons |rows |cuts |sepa|confs|strbr|  dualbound   | primalbound  |  gap   | compl. 
 20.9s|    37 |    18 |  3871 |  83.9 |    14M |  15 |3242 |  48 |  48 |   0 |  1 |   0 |   0 | 8.000000e+00 | 9.000000e+00 |  12.50%|   2.50%
 time | node  | left  |LP iter|LP it/n|mem/heur|mdpt |vars |cons |rows |cuts |sepa|confs|strbr|  dualbound   | primalbound  |  gap   | compl. 
 21.3s|    38 |    19 |  3876 |  81.7 |    14M |  15 |3242 |  48 |  48 |   0 |  1 |   0 |   0 | 8.000000e+00 | 9.000000e+00 |  12.50%|   2.50%
 time | node  | left  |LP iter|LP it/n|mem/heur|mdpt |vars |cons |rows |cuts |sepa|confs|strbr|  dualbound   | primalbound  |  gap   | compl. 
 21.7s|    39 |    20 |  3902 |  80.3 |    14M |  15 |3243 |  48 |  48 |   0 |  1 |   0 |   0 | 8.000000e+00 | 9.000000e+00 |  12.50%|   2.50%
 time | node  | left  |LP iter|LP it/n|mem/heur|mdpt |vars |cons |rows |cuts |sepa|confs|strbr|  dualbound   | primalbound  |  gap   | compl. 
 22.3s|    40 |    21 |  4056 |  82.2 |    14M |  15 |3305 |  48 |  48 |   0 |  1 |   0 |   0 | 8.000000e+00 | 9.000000e+00 |  12.50%|   2.50%
 time | node  | left  |LP iter|LP it/n|mem/heur|mdpt |vars |cons |rows |cuts |sepa|confs|strbr|  dualbound   | primalbound  |  gap   | compl. 
 22.5s|    41 |    22 |  4064 |  80.3 |    14M |  15 |3305 |  48 |  48 |   0 |  1 |   0 |   0 | 8.000000e+00 | 9.000000e+00 |  12.50%|   2.50%
 time | node  | left  |LP iter|LP it/n|mem/heur|mdpt |vars |cons |rows |cuts |sepa|confs|strbr|  dualbound   | primalbound  |  gap   | compl. 
 23.0s|    42 |    23 |  4081 |  78.8 |    14M |  15 |3308 |  48 |  48 |   0 |  1 |   0 |   0 | 8.000000e+00 | 9.000000e+00 |  12.50%|   2.50%
 time | node  | left  |LP iter|LP it/n|mem/heur|mdpt |vars |cons |rows |cuts |sepa|confs|strbr|  dualbound   | primalbound  |  gap   | compl. 
 23.3s|    43 |    22 |  4091 |  77.1 |    14M |  15 |3321 |  48 |  48 |   0 |  0 |   0 |   0 | 8.000000e+00 | 9.000000e+00 |  12.50%|   2.50%
 time | node  | left  |LP iter|LP it/n|mem/heur|mdpt |vars |cons |rows |cuts |sepa|confs|strbr|  dualbound   | primalbound  |  gap   | compl. 
 23.6s|    44 |    21 |  4124 |  76.1 |    14M |  15 |3337 |  48 |  48 |   0 |  0 |   0 |   0 | 8.000000e+00 | 9.000000e+00 |  12.50%|   2.51%
 time | node  | left  |LP iter|LP it/n|mem/heur|mdpt |vars |cons |rows |cuts |sepa|confs|strbr|  dualbound   | primalbound  |  gap   | compl. 
 24.0s|    45 |    20 |  4214 |  76.4 |    14M |  15 |3354 |  48 |  48 |   0 |  0 |   0 |   0 | 8.000000e+00 | 9.000000e+00 |  12.50%|   2.58%
 time | node  | left  |LP iter|LP it/n|mem/heur|mdpt |vars |cons |rows |cuts |sepa|confs|strbr|  dualbound   | primalbound  |  gap   | compl. 
 24.3s|    46 |    19 |  4228 |  75.0 |    14M |  15 |3354 |  48 |  48 |   0 |  0 |   0 |   0 | 8.000000e+00 | 9.000000e+00 |  12.50%|   2.59%
 time | node  | left  |LP iter|LP it/n|mem/heur|mdpt |vars |cons |rows |cuts |sepa|confs|strbr|  dualbound   | primalbound  |  gap   | compl. 
 24.8s|    47 |    18 |  4272 |  74.3 |    14M |  15 |3403 |  48 |  48 |   0 |  0 |   0 |   0 | 8.000000e+00 | 9.000000e+00 |  12.50%|   2.59%
 time | node  | left  |LP iter|LP it/n|mem/heur|mdpt |vars |cons |rows |cuts |sepa|confs|strbr|  dualbound   | primalbound  |  gap   | compl. 
 25.1s|    48 |    19 |  4276 |  72.9 |    14M |  15 |3403 |  48 |  48 |   0 |  1 |   0 |   0 | 8.000000e+00 | 9.000000e+00 |  12.50%|   2.59%
 time | node  | left  |LP iter|LP it/n|mem/heur|mdpt |vars |cons |rows |cuts |sepa|confs|strbr|  dualbound   | primalbound  |  gap   | compl. 
 25.8s|    49 |    20 |  4394 |  73.8 |    14M |  15 |3497 |  48 |  48 |   0 |  1 |   0 |   0 | 8.000000e+00 | 9.000000e+00 |  12.50%|   2.59%
 time | node  | left  |LP iter|LP it/n|mem/heur|mdpt |vars |cons |rows |cuts |sepa|confs|strbr|  dualbound   | primalbound  |  gap   | compl. 
 26.3s|    50 |    21 |  4433 |  73.1 |    15M |  15 |3522 |  48 |  48 |   0 |  1 |   0 |   0 | 8.000000e+00 | 9.000000e+00 |  12.50%|   2.59%
 time | node  | left  |LP iter|LP it/n|mem/heur|mdpt |vars |cons |rows |cuts |sepa|confs|strbr|  dualbound   | primalbound  |  gap   | compl. 
 26.7s|    51 |    22 |  4441 |  71.8 |    15M |  15 |3522 |  48 |  48 |   0 |  1 |   0 |   0 | 8.000000e+00 | 9.000000e+00 |  12.50%|   2.59%
 time | node  | left  |LP iter|LP it/n|mem/heur|mdpt |vars |cons |rows |cuts |sepa|confs|strbr|  dualbound   | primalbound  |  gap   | compl. 
r26.9s|    52 |     0 |  4457 |  70.7 |simplero|  15 |3522 |  48 |  48 |   0 |  0 |   0 |   0 | 8.000000e+00 | 8.000000e+00 |   0.00%| 100.00%

SCIP Status        : problem is solved [optimal solution found]
Solving Time (sec) : 26.97
Solving Nodes      : 52
Primal Bound       : +8.00000000000000e+00 (6 solutions)
Dual Bound         : +8.00000000000000e+00
Gap                : 0.00 %
Running with parallel: True bidir: True symbreak: True
Number of Nodes:  48
48.03512008101852% holds
starting cheapest insertion heuristic
Heuristic without TSP improvement:  10
Heuristic without TSP improvement time:  0.1
Heuristic Sol:  9
Heuristic total time:  0.1
[[0, 33, 46, 38], [12, 39, 22, 5, 6, 9, 8], [47, 16, 25, 24, 31, 40, 13, 36, 3], [45, 37, 34, 21, 7], [44, 15, 18, 19, 2, 1, 14, 29], [43, 42, 26], [41, 32, 30, 27], [35, 11, 17, 23, 4], [28, 10, 20]]
Instance path:  /home/htc/mghannam/SCRATCH/lccp-rust/data/t84_gr48.npcc
Timelimit:  7200
Heuristic without TSP improvement:  10
Heuristic without TSP improvement time:  0.1
Heuristic Sol:  9
Heuristic total time:  0.3
at 1 zero_duals: 39
at1, LP obj: 9.0 n_added_paths: 407
at 1 zero_duals: 27
at1, LP obj: 9.0 n_added_paths: 135
at 1 zero_duals: 12
at1, LP obj: 9.0 n_added_paths: 388
at 1 zero_duals: 19
at1, LP obj: 8.5 n_added_paths: 286
at 1 zero_duals: 9
at1, LP obj: 8.041666666666666 n_added_paths: 188
at 1 zero_duals: 6
at1, LP obj: 7.775943396226415 n_added_paths: 99
at 1 zero_duals: 3
at1, LP obj: 7.631147540983607 n_added_paths: 24
at 1 zero_duals: 3
at1, LP obj: 7.622549019607843 n_added_paths: 3
at 1 zero_duals: 2
at1, LP obj: 7.605769230769231 n_added_paths: 13
at 1 zero_duals: 4
Switching to elementary pricing
at1, LP obj: 7.574766355140187 n_added_paths: 11
updated lowerbound from 1.0 to 8
at 1 zero_duals: 6
at1, LP obj: 7.55 n_added_paths: 2
at 1 zero_duals: 5
at1, LP obj: 7.55 n_added_paths: 1
at 1 zero_duals: 6
Switching to elementary pricing
at1, LP obj: 7.55 n_added_paths: 4
at 1 zero_duals: 6
Switching to elementary pricing
at1, LP obj: 7.55 n_added_paths: 2
at 1 zero_duals: 6
Switching to elementary pricing
at1, LP obj: 7.55 n_added_paths: 0
at 2 zero_duals: 2
at2, LP obj: 7.573741007194244 n_added_paths: 7
at 2 zero_duals: 3
Switching to elementary pricing
at2, LP obj: 7.571242397914856 n_added_paths: 2
at 2 zero_duals: 4
Switching to elementary pricing
at2, LP obj: 7.568345323741007 n_added_paths: 0
at 4 zero_duals: 2
Switching to elementary pricing
at4, LP obj: 7.640552995391705 n_added_paths: 29
at 4 zero_duals: 4
Switching to elementary pricing
at4, LP obj: 7.625 n_added_paths: 0
at 5 zero_duals: 4
Switching to elementary pricing
at5, LP obj: 7.603448275862069 n_added_paths: 13
at 5 zero_duals: 5
Switching to elementary pricing
at5, LP obj: 7.590909090909091 n_added_paths: 1
at 5 zero_duals: 5
Switching to elementary pricing
at5, LP obj: 7.590909090909091 n_added_paths: 0
at 8 zero_duals: 4
Switching to elementary pricing
at8, LP obj: 7.593406593406593 n_added_paths: 1
at 8 zero_duals: 5
Switching to elementary pricing
at8, LP obj: 7.590909090909091 n_added_paths: 0
at 9 zero_duals: 6
at9, LP obj: 7.673255813953489 n_added_paths: 18
at 9 zero_duals: 6
Switching to elementary pricing
at9, LP obj: 7.665094339622641 n_added_paths: 10
at 9 zero_duals: 3
Switching to elementary pricing
at9, LP obj: 7.664285714285715 n_added_paths: 1
at 9 zero_duals: 3
Switching to elementary pricing
at9, LP obj: 7.662125340599455 n_added_paths: 0
at 12 zero_duals: 5
Switching to elementary pricing
at12, LP obj: 7.663390663390664 n_added_paths: 2
at 12 zero_duals: 4
Switching to elementary pricing
at12, LP obj: 7.663390663390663 n_added_paths: 0
at 13 zero_duals: 47
Switching to elementary pricing
at13, LP obj: 1e+20 n_added_paths: 1
updated lowerbound from 8.0 to 100000000000000000000
at 13 zero_duals: 3
at13, LP obj: 8.614973262032086 n_added_paths: 16
at 13 zero_duals: 3
Switching to elementary pricing
at13, LP obj: 8.60919540229885 n_added_paths: 12
updated lowerbound from 8.0 to 9
at 15 zero_duals: 4
Switching to elementary pricing
at15, LP obj: 7.672834937083642 n_added_paths: 1
at 15 zero_duals: 5
Switching to elementary pricing
at15, LP obj: 7.672794117647059 n_added_paths: 0
at 14 zero_duals: 9
Switching to elementary pricing
at14, LP obj: 7.825842696629214 n_added_paths: 82
at 14 zero_duals: 3
Switching to elementary pricing
at14, LP obj: 7.7607361963190185 n_added_paths: 11
at 14 zero_duals: 3
Switching to elementary pricing
at14, LP obj: 7.75 n_added_paths: 1
at 14 zero_duals: 3
Switching to elementary pricing
at14, LP obj: 7.740556809631301 n_added_paths: 1
at 14 zero_duals: 2
Switching to elementary pricing
at14, LP obj: 7.740556809631302 n_added_paths: 0
at 18 zero_duals: 5
at18, LP obj: 7.76551724137931 n_added_paths: 6
at 18 zero_duals: 5
Switching to elementary pricing
at18, LP obj: 7.765432098765432 n_added_paths: 5
at 18 zero_duals: 5
Switching to elementary pricing
at18, LP obj: 7.76510067114094 n_added_paths: 2
at 18 zero_duals: 2
Switching to elementary pricing
at18, LP obj: 7.76510067114094 n_added_paths: 1
at 18 zero_duals: 2
Switching to elementary pricing
at18, LP obj: 7.76510067114094 n_added_paths: 0
at 20 zero_duals: 7
Switching to elementary pricing
at20, LP obj: 7.875278396436526 n_added_paths: 21
at 20 zero_duals: 7
Switching to elementary pricing
at20, LP obj: 7.846153846153846 n_added_paths: 1
at 20 zero_duals: 6
at20, LP obj: 7.845454545454546 n_added_paths: 1
at 20 zero_duals: 6
Switching to elementary pricing
at20, LP obj: 7.844660194174757 n_added_paths: 1
at 20 zero_duals: 6
Switching to elementary pricing
at20, LP obj: 7.844544095665172 n_added_paths: 0
at 22 zero_duals: 6
Switching to elementary pricing
at22, LP obj: 7.8603429203539825 n_added_paths: 23
at 22 zero_duals: 7
Switching to elementary pricing
at22, LP obj: 7.8484375 n_added_paths: 0
at 24 zero_duals: 47
Switching to elementary pricing
at24, LP obj: 1e+20 n_added_paths: 1
updated lowerbound from 8.0 to 100000000000000000000
at 24 zero_duals: 47
Switching to elementary pricing
at24, LP obj: 1e+20 n_added_paths: 33
updated lowerbound from 8.0 to 100000000000000000000
at 24 zero_duals: 3
at24, LP obj: 8.80327868852459 n_added_paths: 134
at 24 zero_duals: 6
Switching to elementary pricing
at24, LP obj: 8.454545454545455 n_added_paths: 35
at 24 zero_duals: 7
Switching to elementary pricing
at24, LP obj: 8.423580786026202 n_added_paths: 13
at 24 zero_duals: 3
Switching to elementary pricing
at24, LP obj: 8.39896373056995 n_added_paths: 4
updated lowerbound from 8.0 to 9
at 25 zero_duals: 7
Switching to elementary pricing
at25, LP obj: 7.856807511737089 n_added_paths: 1
at 25 zero_duals: 7
Switching to elementary pricing
at25, LP obj: 7.856770833333333 n_added_paths: 0
at 26 zero_duals: 7
Switching to elementary pricing
at26, LP obj: 7.856807511737089 n_added_paths: 0
at 28 zero_duals: 7
at28, LP obj: 7.891608391608392 n_added_paths: 10
at 28 zero_duals: 7
Switching to elementary pricing
at28, LP obj: 7.86404396875904 n_added_paths: 0
at 30 zero_duals: 5
Switching to elementary pricing
at30, LP obj: 7.9147727272727275 n_added_paths: 10
at 30 zero_duals: 6
Switching to elementary pricing
at30, LP obj: 7.914285714285714 n_added_paths: 0
at 32 zero_duals: 6
Switching to elementary pricing
at32, LP obj: 7.914661965989216 n_added_paths: 3
at 32 zero_duals: 6
Switching to elementary pricing
at32, LP obj: 7.914634146341463 n_added_paths: 0
at 31 zero_duals: 11
Switching to elementary pricing
at31, LP obj: 7.910112359550562 n_added_paths: 10
at 31 zero_duals: 6
Switching to elementary pricing
at31, LP obj: 7.891891891891892 n_added_paths: 3
at 31 zero_duals: 6
Switching to elementary pricing
at31, LP obj: 7.890459363957597 n_added_paths: 0
at 36 zero_duals: 46
Switching to elementary pricing
at36, LP obj: 1e+20 n_added_paths: 3
updated lowerbound from 8.0 to 100000000000000000000
at 36 zero_duals: 47
Switching to elementary pricing
at36, LP obj: 1e+20 n_added_paths: 18
updated lowerbound from 8.0 to 100000000000000000000
at 36 zero_duals: 10
at36, LP obj: 9.55704697986577 n_added_paths: 183
at 36 zero_duals: 9
Switching to elementary pricing
at36, LP obj: 8.965034965034965 n_added_paths: 67
at 36 zero_duals: 4
Switching to elementary pricing
at36, LP obj: 8.8203125 n_added_paths: 12
updated lowerbound from 8.0 to 9
at 37 zero_duals: 7
Switching to elementary pricing
at37, LP obj: 7.903478260869565 n_added_paths: 3
at 37 zero_duals: 7
Switching to elementary pricing
at37, LP obj: 7.902951880307318 n_added_paths: 2
at 37 zero_duals: 7
Switching to elementary pricing
at37, LP obj: 7.902512562814071 n_added_paths: 0
at 38 zero_duals: 46
Switching to elementary pricing
at38, LP obj: 1e+20 n_added_paths: 0
updated lowerbound from 8.0 to 100000000000000000000
at 27 zero_duals: 47
Switching to elementary pricing
at27, LP obj: 1e+20 n_added_paths: 0
updated lowerbound from 8.0 to 100000000000000000000
at 29 zero_duals: 8
Switching to elementary pricing
at29, LP obj: 8.214285714285714 n_added_paths: 52
at 29 zero_duals: 8
Switching to elementary pricing
at29, LP obj: 8.086626139817628 n_added_paths: 4
updated lowerbound from 8.0 to 9
at 23 zero_duals: 6
at23, LP obj: 7.87536231884058 n_added_paths: 2
at 23 zero_duals: 7
Switching to elementary pricing
at23, LP obj: 7.844660194174757 n_added_paths: 0
at 40 zero_duals: 46
Switching to elementary pricing
at40, LP obj: 1e+20 n_added_paths: 15
updated lowerbound from 8.0 to 100000000000000000000
at 40 zero_duals: 9
Switching to elementary pricing
at40, LP obj: 8.658256880733944 n_added_paths: 92
at 40 zero_duals: 7
Switching to elementary pricing
at40, LP obj: 8.35047619047619 n_added_paths: 32
at 40 zero_duals: 10
Switching to elementary pricing
at40, LP obj: 8.3 n_added_paths: 0
updated lowerbound from 8.0 to 9
at 41 zero_duals: 6
Switching to elementary pricing
at41, LP obj: 7.874120406567632 n_added_paths: 2
at 41 zero_duals: 6
Switching to elementary pricing
at41, LP obj: 7.874074074074074 n_added_paths: 0
at 42 zero_duals: 6
Switching to elementary pricing
at42, LP obj: 7.874120406567631 n_added_paths: 0
at 34 zero_duals: 47
Switching to elementary pricing
at34, LP obj: 1e+20 n_added_paths: 0
updated lowerbound from 8.0 to 100000000000000000000
at 3 zero_duals: 6
Switching to elementary pricing
at3, LP obj: 7.6213235294117645 n_added_paths: 26
at 3 zero_duals: 4
Switching to elementary pricing
at3, LP obj: 7.6171875 n_added_paths: 10
at 3 zero_duals: 3
Switching to elementary pricing
at3, LP obj: 7.616228070175439 n_added_paths: 0
at 46 zero_duals: 47
Switching to elementary pricing
at46, LP obj: 1e+20 n_added_paths: 16
updated lowerbound from 8.0 to 100000000000000000000
at 46 zero_duals: 47
Switching to elementary pricing
at46, LP obj: 1e+20 n_added_paths: 32
updated lowerbound from 8.0 to 100000000000000000000
at 46 zero_duals: 17
Switching to elementary pricing
at46, LP obj: 9.0 n_added_paths: 401
at 46 zero_duals: 3
Switching to elementary pricing
at46, LP obj: 8.138999205718825 n_added_paths: 55
at 46 zero_duals: 4
Switching to elementary pricing
at46, LP obj: 7.973837209302325 n_added_paths: 21
at 46 zero_duals: 4
Switching to elementary pricing
at46, LP obj: 7.9534606205250595 n_added_paths: 7
at 46 zero_duals: 4
Switching to elementary pricing
at46, LP obj: 7.950342465753424 n_added_paths: 0
at 35 zero_duals: 5
Switching to elementary pricing
at35, LP obj: 7.907035175879397 n_added_paths: 5
at 35 zero_duals: 6
Switching to elementary pricing
at35, LP obj: 7.906832298136646 n_added_paths: 0
at 50 zero_duals: 4
Switching to elementary pricing
at50, LP obj: 8.097963142580019 n_added_paths: 23
at 50 zero_duals: 5
Switching to elementary pricing
at50, LP obj: 8.050970873786408 n_added_paths: 7
at 50 zero_duals: 3
Switching to elementary pricing
at50, LP obj: 8.050970873786408 n_added_paths: 1
updated lowerbound from 8.0 to 9
at 33 zero_duals: 47
Switching to elementary pricing
at33, LP obj: 1e+20 n_added_paths: 0
updated lowerbound from 8.0 to 100000000000000000000
at 21 zero_duals: 9
Switching to elementary pricing
at21, LP obj: 7.790697674418604 n_added_paths: 0
at 52 zero_duals: 7
Switching to elementary pricing
at52, LP obj: 7.833333333333333 n_added_paths: 3
at 52 zero_duals: 5
Switching to elementary pricing
at52, LP obj: 7.827628361858191 n_added_paths: 1
at 52 zero_duals: 5
Switching to elementary pricing
at52, LP obj: 7.827586206896552 n_added_paths: 0
at 54 zero_duals: 8
Switching to elementary pricing
at54, LP obj: 7.833333333333334 n_added_paths: 0
at 56 zero_duals: 11
Switching to elementary pricing
at56, LP obj: 7.875 n_added_paths: 1
at 56 zero_duals: 11
Switching to elementary pricing
at56, LP obj: 7.875 n_added_paths: 0
at 58 zero_duals: 7
Switching to elementary pricing
at58, LP obj: 8.040723981900452 n_added_paths: 50
at 58 zero_duals: 7
at58, LP obj: 7.985849056603773 n_added_paths: 9
at 58 zero_duals: 6
at58, LP obj: 7.970588235294118 n_added_paths: 1
at 58 zero_duals: 7
Switching to elementary pricing
at58, LP obj: 7.970588235294118 n_added_paths: 1
at 58 zero_duals: 7
Switching to elementary pricing
at58, LP obj: 7.970588235294117 n_added_paths: 1
at 58 zero_duals: 7
Switching to elementary pricing
at58, LP obj: 7.96875 n_added_paths: 0
at 60 zero_duals: 7
Switching to elementary pricing
at60, LP obj: 7.970588235294118 n_added_paths: 0
at 62 zero_duals: 7
Switching to elementary pricing
at62, LP obj: 7.971153846153846 n_added_paths: 2
at 62 zero_duals: 7
Switching to elementary pricing
at62, LP obj: 7.971153846153846 n_added_paths: 1
at 62 zero_duals: 6
Switching to elementary pricing
at62, LP obj: 7.971153846153846 n_added_paths: 0
at 61 zero_duals: 46
Switching to elementary pricing
at61, LP obj: 1e+20 n_added_paths: 13
updated lowerbound from 8.0 to 100000000000000000000
at 61 zero_duals: 47
Switching to elementary pricing
at61, LP obj: 1e+20 n_added_paths: 0
updated lowerbound from 8.0 to 100000000000000000000
at 55 zero_duals: 46
at55, LP obj: 1e+20 n_added_paths: 16
at 55 zero_duals: 47
Switching to elementary pricing
at55, LP obj: 1e+20 n_added_paths: 0
updated lowerbound from 8.0 to 100000000000000000000
at 63 zero_duals: 11
Switching to elementary pricing
at63, LP obj: 8.13888888888889 n_added_paths: 14
at 63 zero_duals: 6
Switching to elementary pricing
at63, LP obj: 8.094444444444445 n_added_paths: 3
updated lowerbound from 8.0 to 9
at 64 zero_duals: 5
Switching to elementary pricing
at64, LP obj: 8.003333333333334 n_added_paths: 0
updated lowerbound from 8.0 to 9
at 65 zero_duals: 11
Switching to elementary pricing
at65, LP obj: 8.056410256410256 n_added_paths: 39
at 65 zero_duals: 7
Switching to elementary pricing
at65, LP obj: 8.03185595567867 n_added_paths: 10
at 65 zero_duals: 5
Switching to elementary pricing
at65, LP obj: 8.028138528138529 n_added_paths: 0
updated lowerbound from 8.0 to 9
at 59 zero_duals: 11
Switching to elementary pricing
at59, LP obj: 7.875 n_added_paths: 0
at 66 zero_duals: 7
at66, LP obj: 8.067114093959733 n_added_paths: 82
at 66 zero_duals: 5
Switching to elementary pricing
at66, LP obj: 7.938461538461539 n_added_paths: 9
at 66 zero_duals: 5
Switching to elementary pricing
at66, LP obj: 7.92814371257485 n_added_paths: 3
at 66 zero_duals: 6
Switching to elementary pricing
at66, LP obj: 7.924281984334204 n_added_paths: 0
at 68 zero_duals: 16
Switching to elementary pricing
at68, LP obj: 8.0 n_added_paths: 14
at 68 zero_duals: 16
Switching to elementary pricing
at68, LP obj: 8.0 n_added_paths: 11
at 68 zero_duals: 5
Switching to elementary pricing
at68, LP obj: 7.973684210526316 n_added_paths: 0
at 70 zero_duals: 17
Switching to elementary pricing
at70, LP obj: 7.999999999999999 n_added_paths: 0
at 72 zero_duals: 17
Switching to elementary pricing
at72, LP obj: 8.0 n_added_paths: 0
Best solution found:
[32, 27, 16, 25, 0, 32] 1.0 1.0
checking cycle [32, 27, 16, 25, 0, 32]
[32, 27, 16, 25, 0, 32] 911 792
[45, 34, 37, 28, 30, 45] 1.0 1.0
checking cycle [45, 34, 37, 28, 30, 45]
[45, 34, 37, 28, 30, 45] 677 636
[46, 10, 20, 33, 38, 46] 1.0 1.0
checking cycle [46, 10, 20, 33, 38, 46]
[46, 10, 20, 33, 38, 46] 651 616
[41, 7, 21, 9, 2, 41] 1.0 1.0
checking cycle [41, 7, 21, 9, 2, 41]
[41, 7, 21, 9, 2, 41] 792 784
[39, 12, 8, 5, 22, 35, 39] 1.0 1.0
checking cycle [39, 12, 8, 5, 22, 35, 39]
[39, 12, 8, 5, 22, 35, 39] 819 745
[47, 24, 40, 31, 43, 26, 13, 36, 3, 47] 1.0 1.0
checking cycle [47, 24, 40, 31, 43, 26, 13, 36, 3, 47]
[47, 24, 40, 31, 43, 26, 13, 36, 3, 47] 636 626
[44, 14, 29, 19, 18, 42, 44] 1.0 1.0
checking cycle [44, 14, 29, 19, 18, 42, 44]
[44, 14, 29, 19, 18, 42, 44] 748 714
[23, 17, 11, 15, 1, 6, 4, 23] 1.0 1.0
checking cycle [23, 17, 11, 15, 1, 6, 4, 23]
[23, 17, 11, 15, 1, 6, 4, 23] 1020 897
